758
656
552
551
566
725
659
641
676
705
721
806
734
662
625
731
587
776
678
620
732
664
721
678
778
806
627
619
780
649
750
687
713
692
656
678
637
820
640
710
855
718
675
703
591
785
774
676
885
713
698
762
787
805
736
805
556
701
660
807
614
747
746
631
753
604
720
710
654
617
608
636
599
521
700
637
691
681
845
644
666
678
631
539
678
710
637
687
679
648
700
890
651
728
598
786
695
601
734
595
